
Value of objective function: 1e+30

Actual values of the variables:
max                         1e+30
x1                             40
x2                           10.5
x3                           19.5
x4                              3
